(declare-const in20 Int)
(declare-const in22 Int)
(declare-const in21 Int)
(declare-const in24 Int)
(declare-const in23 Int)
(declare-const in26 Int)
(declare-const in25 Int)
(declare-const in28 Int)
(declare-const in27 Int)
(declare-const in29 Int)
(declare-const in0 Int)
(declare-const in2 Int)
(declare-const in1 Int)
(declare-const in4 Int)
(declare-const in3 Int)
(declare-const in6 Int)
(declare-const in5 Int)
(declare-const in8 Int)
(declare-const in7 Int)
(declare-const in11 Int)
(declare-const in10 Int)
(declare-const in9 Int)
(declare-const in13 Int)
(declare-const in12 Int)
(declare-const in15 Int)
(declare-const in14 Int)
(declare-const in17 Int)
(declare-const in16 Int)
(declare-const in19 Int)
(declare-const in18 Int)

(assert (and (and (and (and (and (and (and (and (and (and (and (and (and (and (and (and (and (and (and (and (and (and (and (and (and (and (and (and  ( ==  in1 ( *  in0 2))  ( ==  in2 ( *  in0 3)))  ( ==  in3 ( *  in0 4)))  ( ==  in4 ( *  in0 5)))  ( ==  in5 ( *  in0 6)))  ( ==  in6 ( *  in0 7)))  ( ==  in7 ( *  in0 8)))  ( ==  in8 ( *  in0 9)))  ( ==  in9 ( *  in0 10)))  ( ==  in10 ( *  in0 11)))  ( ==  in11 ( *  in0 12)))  ( ==  in12 ( *  in0 13)))  ( ==  in13 ( *  in0 14)))  ( ==  in14 ( *  in0 15)))  ( ==  in15 ( *  in0 16)))  ( ==  in16 ( *  in0 17)))  ( ==  in17 ( *  in0 18)))  ( ==  in18 ( *  in0 19)))  ( ==  in19 ( *  in0 20)))  ( ==  in20 ( *  in0 21)))  ( ==  in21 ( *  in0 22)))  ( ==  in22 ( *  in0 23)))  ( ==  in23 ( *  in0 24)))  ( ==  in24 ( *  in0 25)))  ( ==  in25 ( *  in0 26)))  ( ==  in26 ( *  in0 27)))  ( ==  in27 ( *  in0 28)))  ( ==  in28 ( *  in0 29)))  ( ==  in29 ( *  in0 30))))

(check-sat)
(get-model)